
Gurobi 10.0.1 (mac64[arm]) logging started Thu Mar 28 19:09:14 2024

Set parameter LogFile to value "/Users/deniserings/Documents/zib/s-bahn-data/scripts/DeniseMA/processed/BGAS_BKW/original/LP_based/BGAS_BKW_lp.log"
Gurobi Optimizer version 10.0.1 build v10.0.1rc0 (mac64[arm])

CPU model: Apple M2
Thread count: 8 physical cores, 8 logical processors, using up to 8 threads

Optimize a model with 1955 rows, 1012 columns and 6854 nonzeros
Model fingerprint: 0x86f4a718
Variable types: 581 continuous, 431 integer (431 binary)
Coefficient statistics:
  Matrix range     [1e+00, 2e+02]
  Objective range  [1e+00, 4e+02]
  Bounds range     [1e+00, 2e+02]
  RHS range        [1e+00, 5e+02]
Presolve removed 1435 rows and 686 columns
Presolve time: 0.05s
Presolved: 520 rows, 326 columns, 1999 nonzeros
Variable types: 158 continuous, 168 integer (168 binary)

Root relaxation: objective 4.288000e+03, 166 iterations, 0.00 seconds (0.00 work units)

    Nodes    |    Current Node    |     Objective Bounds      |     Work
 Expl Unexpl |  Obj  Depth IntInf | Incumbent    BestBd   Gap | It/Node Time

     0     0 4288.00000    0    7          - 4288.00000      -     -    0s
H    0     0                    4505.9253637 4288.00000  4.84%     -    0s
H    0     0                    4345.3842825 4288.00000  1.32%     -    0s
     0     0 4288.00000    0   19 4345.38428 4288.00000  1.32%     -    0s
     0     0 4288.00000    0   15 4345.38428 4288.00000  1.32%     -    0s
H    0     0                    4327.3763441 4288.00000  0.91%     -    0s
     0     0 4288.00000    0   12 4327.37634 4288.00000  0.91%     -    0s
H    0     0                    4290.5490196 4288.00000  0.06%     -    0s
H    0     0                    4288.4158790 4288.00000  0.01%     -    0s
     0     0          -    0      4288.41588 4288.00000  0.01%     -    0s

Cutting planes:
  Learned: 4
  Gomory: 15
  Implied bound: 8
  MIR: 33
  RLT: 6
  Relax-and-lift: 2

Explored 1 nodes (599 simplex iterations) in 0.08 seconds (0.07 work units)
Thread count was 8 (of 8 available processors)

Solution count 5: 4288.42 4290.55 4327.38 ... 4505.93

Optimal solution found (tolerance 1.00e-04)
Best objective 4.288415879017e+03, best bound 4.288000000000e+03, gap 0.0097%

User-callback calls 922, time in user-callback 0.00 sec

Statistics for modelBGAS_BKW:
  Linear constraint matrix    : 1955 Constrs, 1012 Vars, 6854 NZs
  Variable types              : 581 Continuous,
431 Integer (431 Binary)
  Matrix coefficient range    : [ 1, 200 ]
  Objective coefficient range : [ 1, 388 ]
  Variable bound range        : [ 1, 199 ]
  RHS coefficient range       : [ 1, 549 ]
